25 40
1 2 3
1 6 2
2 3 1
2 7 3
3 4 1
3 8 1
4 5 2
4 9 1
5 10 5
6 7 3
6 11 3
7 8 2
7 12 4
8 9 3
8 13 1
9 10 4
9 14 2
10 15 4
11 12 3
11 16 4
12 13 3
12 17 4
13 14 2
13 18 5
14 15 3
14 19 4
15 20 2
16 17 5
16 21 1
17 18 2
17 22 5
18 19 1
18 23 4
19 20 2
19 24 4
20 25 3
21 22 1
22 23 4
23 24 1
24 25 3
